NAME          COPTPROB
OBJSENSE
  MIN
ROWS
 N  __OBJ___
 L  C21     
 L  C75     
 L  C92     
 L  C199    
COLUMNS
    MARKER    'MARKER'                 'INTORG'
    x55       __OBJ___  82
    x55       C92       -1
    x368      __OBJ___  46
    x368      C21       -1
    x458      __OBJ___  612
    x458      C92       -1
    x458      C199      -1
    x468      __OBJ___  287
    x468      C75       -1
    x468      C92       -1
    x537      __OBJ___  542
    x537      C21       -1
    x537      C199      -1
    x748      __OBJ___  210
    x748      C21       -1
    x748      C75       -1
    MARKER    'MARKER'                 'INTEND'
RHS
    RHS       __OBJ___  -17800
    RHS       C21       -1
    RHS       C75       -1
    RHS       C92       -1
    RHS       C199      -1
BOUNDS
 UP BOUND     x55       1
 UP BOUND     x368      1
 UP BOUND     x458      1
 UP BOUND     x468      1
 UP BOUND     x537      1
 UP BOUND     x748      1
ENDATA
